problems/csplib-prob015/SchursLemma-models/noch/O2/lingeling/model_1_4-5-16-solution000001.eprime-solution
language ESSENCE' 1.0

letting boxes_PartitionOccurrence_FirstIndex be [1, 2, 3, 4, 8; int(1..5)]
letting boxes_PartitionOccurrence_NumParts be 5
letting boxes_PartitionOccurrence_PartSizes be [3, 6, 4, 2, 1; int(1..5)]
letting boxes_PartitionOccurrence_WhichPart be [1, 2, 3, 4, 3, 2, 1, 5, 2, 3, 4, 2, 2, 3, 1, 2; int(1..16)]
