problems/csplib-prob015/SchursLemma-models/noch/O2/lingeling/model_1_4-5-16-solution000001.solution
language Essence 1.3

letting boxes be partition({1, 7, 15}, {2, 6, 9, 12, 13, 16}, {3, 5, 10, 14}, {4, 11}, {8})
